2 100 1291
5 1 5 3 1 1 3 5 6 3
3 2
3 9 8
3 8
0 40.0 50.0 0.0 0.0 0 240
2 25.0 85.0 10.0 20.0 49 191 81 1 0 0 1 0 0 0 0 0 0
3 22.0 75.0 10.0 30.0 30 168 24 0 0 0 0 0 0 0 0 1 1
4 22.0 85.0 10.0 10.0 95 152 76 1 0 0 0 0 1 0 1 0 0
5 20.0 80.0 10.0 40.0 69 193 60 0 0 0 0 0 0 1 0 0 0
6 20.0 85.0 10.0 20.0 40 189 85 1 0 0 0 0 1 0 0 0 0
7 18.0 75.0 10.0 20.0 60 159 12 0 0 0 0 0 0 0 1 0 1
8 15.0 75.0 10.0 20.0 54 133 15 0 0 0 0 0 1 0 0 0 0
9 15.0 80.0 10.0 10.0 67 144 35 0 0 0 0 0 0 0 1 0 0
10 10.0 35.0 10.0 20.0 57 154 63 1 0 0 1 0 1 0 1 0 0
11 10.0 40.0 10.0 30.0 106 161 93 0 0 1 0 0 1 0 0 0 0
12 8.0 40.0 10.0 40.0 33 152 21 1 0 1 0 0 0 0 0 0 0
13 8.0 45.0 10.0 20.0 32 148 79 1 0 1 0 0 0 0 0 0 0
14 5.0 35.0 10.0 10.0 53 191 90 0 0 0 1 0 0 0 1 0 0
15 5.0 45.0 10.0 10.0 35 194 73 1 0 0 1 0 1 0 0 0 1
16 2.0 40.0 10.0 20.0 39 163 80 0 0 1 0 0 1 0 0 0 0
17 0.0 40.0 10.0 20.0 41 141 38 0 0 0 0 0 0 0 1 0 0
18 0.0 45.0 10.0 20.0 51 189 90 0 1 0 0 0 1 0 0 0 0
19 44.0 5.0 10.0 20.0 73 130 42 0 1 0 0 0 0 1 0 0 0
20 42.0 10.0 10.0 40.0 40 148 42 1 0 0 0 0 1 1 0 0 1
21 42.0 15.0 10.0 10.0 94 179 8 0 0 0 0 0 1 0 0 0 0
22 40.0 5.0 10.0 10.0 45 161 27 0 0 1 1 0 0 0 0 1 0
23 40.0 15.0 10.0 40.0 64 149 80 0 0 0 0 1 0 0 0 0 1
24 38.0 5.0 10.0 30.0 45 164 54 0 0 0 0 0 1 0 0 0 0
25 38.0 15.0 10.0 10.0 51 194 56 0 0 1 0 1 0 1 0 0 0
26 35.0 5.0 10.0 20.0 45 183 24 0 0 1 1 1 0 1 0 1 0
27 95.0 30.0 10.0 30.0 90 169 47 0 0 0 0 0 1 0 1 0 0
28 95.0 35.0 10.0 20.0 57 172 70 0 0 0 1 0 0 0 0 0 1
29 92.0 30.0 10.0 10.0 55 174 30 0 0 0 0 0 0 0 0 0 1
30 90.0 35.0 10.0 10.0 52 174 60 0 1 0 0 0 0 0 0 0 0
31 88.0 30.0 10.0 10.0 52 147 23 0 1 0 0 0 0 0 0 0 1
32 88.0 35.0 10.0 20.0 50 172 76 1 0 0 0 0 0 0 0 0 1
33 87.0 30.0 10.0 10.0 61 178 53 0 0 0 0 0 1 1 0 0 0
34 85.0 25.0 10.0 10.0 51 178 79 0 0 0 1 0 0 1 0 0 0
35 85.0 35.0 10.0 30.0 83 168 85 0 0 0 0 0 1 0 0 0 0
36 67.0 85.0 10.0 20.0 57 185 77 0 0 0 1 0 0 1 0 0 0
37 65.0 85.0 10.0 40.0 43 186 87 0 1 0 0 0 0 0 0 0 0
38 65.0 82.0 10.0 10.0 95 182 13 0 0 0 1 1 0 0 1 0 0
39 62.0 80.0 10.0 30.0 38 141 88 1 0 0 1 0 0 0 0 0 0
40 60.0 80.0 10.0 10.0 36 193 32 1 0 1 0 0 0 0 0 0 0
41 60.0 85.0 10.0 30.0 61 138 92 0 0 0 0 0 0 0 0 1 0
42 58.0 75.0 10.0 20.0 49 164 60 0 0 0 0 0 0 1 0 0 0
43 55.0 80.0 10.0 10.0 33 180 65 0 0 0 0 0 0 0 0 1 0
44 55.0 85.0 10.0 20.0 100 185 68 0 0 0 0 0 1 0 0 0 0
45 55.0 82.0 10.0 10.0 35 142 16 1 0 0 0 0 1 0 0 0 0
46 20.0 82.0 10.0 10.0 37 192 64 0 0 0 0 0 0 0 1 0 0
47 18.0 80.0 10.0 10.0 71 184 91 1 0 0 0 1 0 0 0 0 0
48 2.0 45.0 10.0 10.0 38 191 47 0 0 0 0 0 0 0 1 0 0
49 42.0 5.0 10.0 10.0 50 184 46 0 0 1 1 0 1 1 0 0 0
50 42.0 12.0 10.0 10.0 99 138 92 0 0 0 0 0 0 0 0 0 1
51 72.0 35.0 10.0 30.0 83 178 62 1 0 0 0 0 1 0 1 0 0
52 55.0 20.0 10.0 19.0 45 150 98 0 0 0 0 0 0 1 0 0 1
53 25.0 30.0 10.0 3.0 25 150 82 0 0 0 0 0 0 0 0 1 0
54 20.0 50.0 10.0 5.0 68 143 76 0 0 0 0 0 0 0 1 1 1
55 55.0 60.0 10.0 16.0 107 200 43 0 0 0 1 0 0 0 0 0 0
56 30.0 60.0 10.0 16.0 95 214 10 1 1 0 1 0 0 0 1 0 0
57 50.0 35.0 10.0 19.0 91 198 45 0 0 0 1 0 1 0 0 0 0
58 30.0 25.0 10.0 23.0 56 165 58 0 0 0 0 0 0 0 0 1 1
59 15.0 10.0 10.0 20.0 51 182 57 0 0 0 0 1 0 1 0 0 0
60 10.0 20.0 10.0 19.0 42 187 33 1 0 0 0 1 0 0 0 1 1
61 15.0 60.0 10.0 17.0 62 203 92 1 0 0 0 0 1 0 0 0 1
62 45.0 65.0 10.0 9.0 37 124 79 1 0 0 1 0 0 0 0 0 0
63 65.0 35.0 10.0 3.0 29 168 63 0 0 0 0 0 1 0 0 0 0
64 65.0 20.0 10.0 6.0 39 190 86 0 0 0 0 0 1 0 0 0 0
65 45.0 30.0 10.0 17.0 20 139 71 1 1 1 1 0 0 0 0 0 0
66 35.0 40.0 10.0 16.0 11 150 90 0 0 0 0 0 0 1 0 1 0
67 41.0 37.0 10.0 16.0 97 198 50 0 0 0 1 0 0 0 1 1 0
68 64.0 42.0 10.0 9.0 31 138 19 0 1 0 0 0 0 0 0 0 0
69 40.0 60.0 10.0 21.0 101 216 17 0 0 0 0 1 0 0 1 0 0
70 31.0 52.0 10.0 27.0 9 139 41 0 0 1 0 0 0 0 1 1 0
71 35.0 69.0 10.0 23.0 30 210 19 0 0 1 0 0 0 0 1 0 0
72 65.0 55.0 10.0 14.0 30 129 77 1 0 0 0 0 0 0 0 0 1
73 63.0 65.0 10.0 8.0 27 202 34 0 0 0 0 0 1 0 0 0 0
74 2.0 60.0 10.0 5.0 46 137 52 0 0 1 1 1 0 0 0 0 0
75 20.0 20.0 10.0 8.0 71 193 38 0 0 0 0 0 1 0 0 0 0
76 5.0 5.0 10.0 16.0 57 165 73 0 0 0 0 0 1 0 0 0 0
77 60.0 12.0 10.0 31.0 48 131 96 0 0 0 0 0 1 0 1 0 0
78 23.0 3.0 10.0 7.0 49 180 74 1 0 1 0 0 1 1 0 0 0
79 8.0 56.0 10.0 27.0 47 162 89 0 0 0 0 0 0 0 0 1 0
80 6.0 68.0 10.0 30.0 65 142 81 0 0 0 0 0 0 0 1 1 0
81 47.0 47.0 10.0 13.0 93 222 95 0 0 0 0 0 0 0 0 0 1
82 49.0 58.0 10.0 10.0 78 123 94 0 0 0 0 0 1 0 0 0 0
83 27.0 43.0 10.0 9.0 14 140 41 0 0 0 0 0 1 0 0 0 0
84 37.0 31.0 10.0 14.0 19 172 95 0 0 0 1 1 0 1 0 0 0
85 57.0 29.0 10.0 18.0 73 148 0 0 0 0 0 0 0 0 0 1 0
86 63.0 23.0 10.0 2.0 59 144 47 0 0 1 1 1 0 0 0 0 0
87 21.0 24.0 10.0 28.0 63 140 30 0 0 0 0 0 0 1 0 0 0
88 12.0 24.0 10.0 13.0 91 118 95 0 1 0 0 0 0 0 0 1 0
89 24.0 58.0 10.0 19.0 27 136 69 0 0 1 0 0 0 0 0 0 0
90 67.0 5.0 10.0 25.0 52 177 29 0 1 1 0 0 1 0 1 1 0
91 37.0 47.0 10.0 6.0 53 148 14 0 1 0 1 0 0 0 0 0 1
92 49.0 42.0 10.0 13.0 89 217 65 0 0 1 0 0 0 0 0 0 0
93 53.0 43.0 10.0 14.0 14 177 24 0 1 1 0 0 0 0 1 1 0
94 61.0 52.0 10.0 3.0 50 208 77 0 0 0 1 0 0 0 1 0 1
95 57.0 48.0 10.0 23.0 76 143 64 0 1 0 0 0 0 0 0 1 0
96 56.0 37.0 10.0 6.0 20 159 69 0 0 0 0 0 1 0 1 0 0
97 55.0 54.0 10.0 26.0 105 188 77 1 0 0 0 0 0 0 0 0 0
98 4.0 18.0 10.0 35.0 104 165 85 0 0 0 0 0 1 0 0 0 0
99 26.0 52.0 10.0 9.0 14 136 11 1 0 1 0 1 0 1 0 0 0
100 26.0 35.0 10.0 15.0 42 141 55 0 1 1 0 0 0 0 0 0 0
101 31.0 67.0 10.0 3.0 43 210 25 0 0 0 1 0 0 0 1 0 0